37546
0 1 1 0 0 0 1 0 0 1 1 1 0 0 1 0 0 0 1 1 0 1 1 0 0 1 0 1 0 0 
18 19 21 27 2 6 21 27 22 27 19 19 10 1 19 18 1 10 22 27 18 21 2 2 10 18 27 19 19 2 19 19 19 21 27 6 14 9 27 21 18 9 6 9 9 19 10 21 19 14 27 22 2 21 9 6 11 9 18 25 9 2 18 9 10 11 2 14 19 25 18 6 19 9 10 10 10 10 9 22 10 2 9 25 6 10 6 2 27 25 11 6 25 25 2 1 11 6 2 11 19 21 25 18 19 2 6 27 22 1 19 6 27 6 11 9 11 25 14 9 9 11 14 19 9 21 2 11 19 14 11 21 25 10 1 9 1 1 11 10 11 22 11 11 25 2 27 21 27 25 27 14 10 27 10 11 2 21 1 1 1 27 10 2 10 27 1 6 1 21 1 10 19 14 9 21 27 10 6 14 2 21 21 19 11 9 11 10 27 21 2 21 6 6 25 6 25 21 14 6 
